(set-info :smt-lib-version 2.6)
(set-logic QF_SLIA)
(set-info :source |
Generated by: Joel Day, Thorsten Ehlers, Mitja Kulczynski, Federico Mora, Florin Manea, Dirk Nowotka, Danny Poulsen, Zhengyang Lu
Application: Test WOORPJE
Target solver: WOORPJE
Publications: Day, J. D., Ehlers, T., Kulczynski, M., Manea, F., Nowotka, D., & Poulsen, D. B. (2019). On solving word equations using SAT. In RP 2019
Description: Enriches a system of 30 word equations by suitable linear constraints
|)
(set-info :license "https://creativecommons.org/licenses/by/4.0/")
(set-info :category "random")
(set-info :status unknown)

(declare-fun B () String)
(declare-fun F () String)
(declare-fun A () String)
(declare-fun C () String)
(assert (= (str.++  "adddf" F B "ec" F C A F "a" F "aaeba")  (str.++  "adddfb" F "ececb" C A F "abaae" F "a") ))
(assert (= (str.++  "d" F "dcafccdea" F "aefdd" F "c" F "cd" F "cfadcaedfaaecefce")  (str.++  "dbdcafccdeabaefdd" F "c" F "cdbcfadcaedfaaecefce") ))
(assert (= (str.++  "fcbdeecbcd" F "f" F "ddcacefb" F "afacfbacab" F "aaeaeee")  (str.++  "fcbdeecbcd" F "f" F "ddcacefbbafacfbacab" F "aaeaeee") ))
(assert (<=(* (str.len F) 12) 60))
(assert (>=(* (str.len C) 10) 70))
(assert (>=(* (str.len B) 3) 6))
(check-sat)

(exit)
